(set-logic QF_NRA)
(set-info :source |Benchmarks generated from hycomp (https://es-static.fbk.eu/tools/hycomp/). BMC instances of non-linear hybrid automata taken from: Alessandro Cimatti, Sergio Mover, Stefano Tonetta, A quantifier-free SMT encoding of non-linear hybrid automata, FMCAD 2012 and Alessandro Cimatti, Sergio Mover, Stefano Tonetta, Quantier-free encoding of invariants for Hybrid Systems, Formal Methods in System Design. This instance solves a BMC problem of depth 2 and uses the quantifier free encoding with equivalences encoding. Contacts: Sergio Mover (mover@fbk.eu), Stefano Tonetta (tonettas@fbk.eu), Alessandro Cimatti (cimatti@fbk.eu).|)
(set-info :smt-lib-version 2.0)
(set-info :category "industrial")
(set-info :status unsat)
;; MathSAT API call trace
;; generated on Mon Mar 19 10:37:57 2012
(declare-fun b.counter.3__AT1 () Bool)
(declare-fun b.EVENT.1__AT0 () Bool)
(declare-fun b.x__AT0 () Real)
(declare-fun b.speed_x__AT1 () Real)
(declare-fun b.time__AT1 () Real)
(declare-fun g__AT0 () Real)
(declare-fun b.y__AT0 () Real)
(declare-fun b.EVENT.0__AT1 () Bool)
(declare-fun b.speed_y__AT1 () Real)
(declare-fun b.delta__AT1 () Real)
(declare-fun b.counter.0__AT0 () Bool)
(declare-fun b.EVENT.1__AT1 () Bool)
(declare-fun b.counter.1__AT0 () Bool)
(declare-fun b.delta__AT0 () Real)
(declare-fun b.EVENT.0__AT0 () Bool)
(declare-fun b.x__AT1 () Real)
(declare-fun b.speed_y__AT0 () Real)
(declare-fun b.event_is_timed__AT2 () Bool)
(declare-fun b.time__AT2 () Real)
(declare-fun b.y__AT2 () Real)
(declare-fun b.counter.3__AT0 () Bool)
(declare-fun b.delta__AT2 () Real)
(declare-fun b.counter.0__AT2 () Bool)
(declare-fun b.x__AT2 () Real)
(declare-fun b.EVENT.0__AT2 () Bool)
(declare-fun b.event_is_timed__AT0 () Bool)
(declare-fun b.counter.1__AT2 () Bool)
(declare-fun b.EVENT.1__AT2 () Bool)
(declare-fun b.counter.2__AT2 () Bool)
(declare-fun speed_loss__AT0 () Real)
(declare-fun b.counter.3__AT2 () Bool)
(declare-fun b.y__AT1 () Real)
(declare-fun b.event_is_timed__AT1 () Bool)
(declare-fun b.counter.0__AT1 () Bool)
(declare-fun b.speed_x__AT0 () Real)
(declare-fun b.speed_x__AT2 () Real)
(declare-fun b.counter.1__AT1 () Bool)
(declare-fun b.time__AT0 () Real)
(declare-fun b.counter.2__AT0 () Bool)
(declare-fun b.speed_y__AT2 () Real)
(declare-fun b.counter.2__AT1 () Bool)
(assert (let ((.def_76 (* (- 1.0) g__AT0)))
(let ((.def_77 (* (/ 1 2) .def_76)))
(let ((.def_85 (* 2.0 .def_77)))
(let ((.def_444 (* .def_85 b.delta__AT2)))
(let ((.def_445 (+ b.speed_y__AT2 .def_444)))
(let ((.def_449 (<= .def_445 0.0 )))
(let ((.def_448 (<= b.speed_y__AT2 0.0 )))
(let ((.def_450 (and .def_448 .def_449)))
(let ((.def_446 (<= 0.0 .def_445)))
(let ((.def_443 (<= 0.0 b.speed_y__AT2)))
(let ((.def_447 (and .def_443 .def_446)))
(let ((.def_451 (or .def_447 .def_450)))
(let ((.def_438 (* b.speed_y__AT2 b.delta__AT2)))
(let ((.def_436 (* b.delta__AT2 b.delta__AT2)))
(let ((.def_437 (* .def_77 .def_436)))
(let ((.def_439 (+ .def_437 .def_438)))
(let ((.def_440 (+ b.y__AT2 .def_439)))
(let ((.def_441 (<= 0.0 .def_440)))
(let ((.def_424 (<= 0.0 b.y__AT2)))
(let ((.def_442 (and .def_424 .def_441)))
(let ((.def_452 (and .def_442 .def_451)))
(let ((.def_57 (<= g__AT0 10.0 )))
(let ((.def_56 (<= 8.0 g__AT0)))
(let ((.def_58 (and .def_56 .def_57)))
(let ((.def_453 (and .def_58 .def_452)))
(let ((.def_65 (<= speed_loss__AT0 (/ 1 2))))
(let ((.def_62 (<= (/ 1 10) speed_loss__AT0)))
(let ((.def_66 (and .def_62 .def_65)))
(let ((.def_454 (and .def_66 .def_453)))
(let ((.def_152 (not b.counter.0__AT1)))
(let ((.def_140 (not b.counter.1__AT1)))
(let ((.def_428 (and .def_140 .def_152)))
(let ((.def_431 (or b.counter.3__AT1 .def_428)))
(let ((.def_147 (not b.counter.2__AT1)))
(let ((.def_429 (and .def_147 .def_428)))
(let ((.def_162 (not b.counter.3__AT1)))
(let ((.def_430 (or .def_162 .def_429)))
(let ((.def_432 (and .def_430 .def_431)))
(let ((.def_67 (and .def_58 .def_66)))
(let ((.def_425 (and .def_67 .def_424)))
(let ((.def_421 (not b.EVENT.0__AT2)))
(let ((.def_419 (not b.EVENT.1__AT2)))
(let ((.def_422 (or .def_419 .def_421)))
(let ((.def_6 (not b.counter.0__AT2)))
(let ((.def_4 (not b.counter.1__AT2)))
(let ((.def_412 (or .def_4 .def_6)))
(let ((.def_416 (or b.counter.3__AT2 .def_412)))
(let ((.def_413 (or b.counter.2__AT2 .def_412)))
(let ((.def_9 (not b.counter.2__AT2)))
(let ((.def_411 (or .def_6 .def_9)))
(let ((.def_414 (and .def_411 .def_413)))
(let ((.def_12 (not b.counter.3__AT2)))
(let ((.def_415 (or .def_12 .def_414)))
(let ((.def_417 (and .def_415 .def_416)))
(let ((.def_423 (and .def_417 .def_422)))
(let ((.def_426 (and .def_423 .def_425)))
(let ((.def_406 (<= 0.0 b.delta__AT1)))
(let ((.def_250 (not b.EVENT.0__AT1)))
(let ((.def_248 (not b.EVENT.1__AT1)))
(let ((.def_309 (and .def_248 .def_250)))
(let ((.def_310 (not .def_309)))
(let ((.def_407 (or .def_310 .def_406)))
(let ((.def_408 (or b.EVENT.1__AT1 .def_407)))
(let ((.def_355 (= b.counter.0__AT2 b.counter.0__AT1)))
(let ((.def_353 (= b.counter.1__AT2 b.counter.1__AT1)))
(let ((.def_351 (= b.counter.2__AT2 b.counter.2__AT1)))
(let ((.def_350 (= b.counter.3__AT2 b.counter.3__AT1)))
(let ((.def_352 (and .def_350 .def_351)))
(let ((.def_354 (and .def_352 .def_353)))
(let ((.def_356 (and .def_354 .def_355)))
(let ((.def_403 (or .def_310 .def_356)))
(let ((.def_404 (or b.EVENT.1__AT1 .def_403)))
(let ((.def_363 (= b.x__AT1 b.x__AT2)))
(let ((.def_360 (= b.y__AT1 b.y__AT2)))
(let ((.def_397 (and .def_360 .def_363)))
(let ((.def_290 (= b.speed_x__AT1 b.speed_x__AT2)))
(let ((.def_398 (and .def_290 .def_397)))
(let ((.def_349 (= b.speed_y__AT1 b.speed_y__AT2)))
(let ((.def_399 (and .def_349 .def_398)))
(let ((.def_394 (= b.delta__AT1 0.0 )))
(let ((.def_395 (and .def_309 .def_394)))
(let ((.def_396 (not .def_395)))
(let ((.def_400 (or .def_396 .def_399)))
(let ((.def_401 (or b.EVENT.1__AT1 .def_400)))
(let ((.def_374 (= b.time__AT1 b.time__AT2)))
(let ((.def_386 (and .def_363 .def_374)))
(let ((.def_387 (and .def_360 .def_386)))
(let ((.def_388 (and .def_290 .def_387)))
(let ((.def_389 (and .def_349 .def_388)))
(let ((.def_390 (and .def_356 .def_389)))
(let ((.def_391 (or .def_248 .def_390)))
(let ((.def_377 (* (- 1.0) b.time__AT2)))
(let ((.def_380 (+ b.delta__AT1 .def_377)))
(let ((.def_381 (+ b.time__AT1 .def_380)))
(let ((.def_382 (= .def_381 0.0 )))
(let ((.def_383 (or .def_310 .def_382)))
(let ((.def_384 (or b.EVENT.1__AT1 .def_383)))
(let ((.def_375 (or .def_309 .def_374)))
(let ((.def_376 (or b.EVENT.1__AT1 .def_375)))
(let ((.def_385 (and .def_376 .def_384)))
(let ((.def_392 (and .def_385 .def_391)))
(let ((.def_370 (= .def_310 b.event_is_timed__AT2)))
(let ((.def_368 (= b.event_is_timed__AT1 .def_309)))
(let ((.def_371 (and .def_368 .def_370)))
(let ((.def_357 (and .def_349 .def_356)))
(let ((.def_270 (<= 0.0 b.speed_y__AT1)))
(let ((.def_313 (not .def_270)))
(let ((.def_312 (= b.y__AT1 0.0 )))
(let ((.def_314 (and .def_312 .def_313)))
(let ((.def_358 (or .def_314 .def_357)))
(let ((.def_326 (or .def_6 b.counter.0__AT1)))
(let ((.def_325 (or b.counter.0__AT2 .def_152)))
(let ((.def_327 (and .def_325 .def_326)))
(let ((.def_328 (and .def_4 .def_327)))
(let ((.def_329 (or b.counter.1__AT1 .def_328)))
(let ((.def_324 (or b.counter.1__AT2 .def_140)))
(let ((.def_330 (and .def_324 .def_329)))
(let ((.def_341 (and .def_9 .def_330)))
(let ((.def_342 (or b.counter.2__AT1 .def_341)))
(let ((.def_336 (and .def_4 .def_152)))
(let ((.def_337 (or b.counter.1__AT1 .def_336)))
(let ((.def_338 (and .def_324 .def_337)))
(let ((.def_339 (and b.counter.2__AT2 .def_338)))
(let ((.def_340 (or .def_147 .def_339)))
(let ((.def_343 (and .def_340 .def_342)))
(let ((.def_344 (and b.counter.3__AT2 .def_343)))
(let ((.def_345 (or b.counter.3__AT1 .def_344)))
(let ((.def_331 (and b.counter.2__AT2 .def_330)))
(let ((.def_332 (or b.counter.2__AT1 .def_331)))
(let ((.def_320 (or b.counter.1__AT2 b.counter.1__AT1)))
(let ((.def_318 (and .def_4 b.counter.0__AT2)))
(let ((.def_319 (or .def_140 .def_318)))
(let ((.def_321 (and .def_319 .def_320)))
(let ((.def_322 (and .def_9 .def_321)))
(let ((.def_323 (or .def_147 .def_322)))
(let ((.def_333 (and .def_323 .def_332)))
(let ((.def_334 (and .def_12 .def_333)))
(let ((.def_335 (or .def_162 .def_334)))
(let ((.def_346 (and .def_335 .def_345)))
(let ((.def_135 (* (- 1.0) speed_loss__AT0)))
(let ((.def_136 (+ 1.0 .def_135)))
(let ((.def_113 (* (- 1.0) b.speed_y__AT1)))
(let ((.def_316 (* .def_113 .def_136)))
(let ((.def_317 (= b.speed_y__AT2 .def_316)))
(let ((.def_347 (and .def_317 .def_346)))
(let ((.def_315 (not .def_314)))
(let ((.def_348 (or .def_315 .def_347)))
(let ((.def_359 (and .def_348 .def_358)))
(let ((.def_361 (and .def_359 .def_360)))
(let ((.def_362 (and .def_290 .def_361)))
(let ((.def_364 (and .def_362 .def_363)))
(let ((.def_365 (or .def_309 .def_364)))
(let ((.def_366 (or b.EVENT.1__AT1 .def_365)))
(let ((.def_300 (* (- 1.0) b.y__AT2)))
(let ((.def_265 (* b.speed_y__AT1 b.delta__AT1)))
(let ((.def_304 (+ .def_265 .def_300)))
(let ((.def_263 (* b.delta__AT1 b.delta__AT1)))
(let ((.def_264 (* .def_77 .def_263)))
(let ((.def_305 (+ .def_264 .def_304)))
(let ((.def_306 (+ b.y__AT1 .def_305)))
(let ((.def_307 (= .def_306 0.0 )))
(let ((.def_294 (* (- 1.0) b.speed_y__AT2)))
(let ((.def_292 (* .def_76 b.delta__AT1)))
(let ((.def_295 (+ .def_292 .def_294)))
(let ((.def_296 (+ b.speed_y__AT1 .def_295)))
(let ((.def_297 (= .def_296 0.0 )))
(let ((.def_285 (* (- 1.0) b.x__AT2)))
(let ((.def_283 (* b.speed_x__AT1 b.delta__AT1)))
(let ((.def_286 (+ .def_283 .def_285)))
(let ((.def_287 (+ b.x__AT1 .def_286)))
(let ((.def_288 (= .def_287 0.0 )))
(let ((.def_291 (and .def_288 .def_290)))
(let ((.def_298 (and .def_291 .def_297)))
(let ((.def_308 (and .def_298 .def_307)))
(let ((.def_311 (or .def_308 .def_310)))
(let ((.def_367 (and .def_311 .def_366)))
(let ((.def_372 (and .def_367 .def_371)))
(let ((.def_393 (and .def_372 .def_392)))
(let ((.def_402 (and .def_393 .def_401)))
(let ((.def_405 (and .def_402 .def_404)))
(let ((.def_409 (and .def_405 .def_408)))
(let ((.def_410 (and .def_248 .def_409)))
(let ((.def_427 (and .def_410 .def_426)))
(let ((.def_433 (and .def_427 .def_432)))
(let ((.def_271 (* .def_85 b.delta__AT1)))
(let ((.def_272 (+ b.speed_y__AT1 .def_271)))
(let ((.def_276 (<= .def_272 0.0 )))
(let ((.def_275 (<= b.speed_y__AT1 0.0 )))
(let ((.def_277 (and .def_275 .def_276)))
(let ((.def_273 (<= 0.0 .def_272)))
(let ((.def_274 (and .def_270 .def_273)))
(let ((.def_278 (or .def_274 .def_277)))
(let ((.def_266 (+ .def_264 .def_265)))
(let ((.def_267 (+ b.y__AT1 .def_266)))
(let ((.def_268 (<= 0.0 .def_267)))
(let ((.def_253 (<= 0.0 b.y__AT1)))
(let ((.def_269 (and .def_253 .def_268)))
(let ((.def_279 (and .def_269 .def_278)))
(let ((.def_280 (and .def_58 .def_279)))
(let ((.def_281 (and .def_66 .def_280)))
(let ((.def_32 (not b.counter.0__AT0)))
(let ((.def_30 (not b.counter.1__AT0)))
(let ((.def_33 (and .def_30 .def_32)))
(let ((.def_258 (or .def_33 b.counter.3__AT0)))
(let ((.def_38 (not b.counter.3__AT0)))
(let ((.def_35 (not b.counter.2__AT0)))
(let ((.def_36 (and .def_33 .def_35)))
(let ((.def_257 (or .def_36 .def_38)))
(let ((.def_259 (and .def_257 .def_258)))
(let ((.def_254 (and .def_67 .def_253)))
(let ((.def_251 (or .def_248 .def_250)))
(let ((.def_241 (or .def_140 .def_152)))
(let ((.def_245 (or b.counter.3__AT1 .def_241)))
(let ((.def_242 (or b.counter.2__AT1 .def_241)))
(let ((.def_240 (or .def_147 .def_152)))
(let ((.def_243 (and .def_240 .def_242)))
(let ((.def_244 (or .def_162 .def_243)))
(let ((.def_246 (and .def_244 .def_245)))
(let ((.def_252 (and .def_246 .def_251)))
(let ((.def_255 (and .def_252 .def_254)))
(let ((.def_235 (<= 0.0 b.delta__AT0)))
(let ((.def_51 (not b.EVENT.0__AT0)))
(let ((.def_49 (not b.EVENT.1__AT0)))
(let ((.def_127 (and .def_49 .def_51)))
(let ((.def_128 (not .def_127)))
(let ((.def_236 (or .def_128 .def_235)))
(let ((.def_237 (or b.EVENT.1__AT0 .def_236)))
(let ((.def_184 (= b.counter.0__AT0 b.counter.0__AT1)))
(let ((.def_182 (= b.counter.1__AT0 b.counter.1__AT1)))
(let ((.def_180 (= b.counter.2__AT0 b.counter.2__AT1)))
(let ((.def_179 (= b.counter.3__AT0 b.counter.3__AT1)))
(let ((.def_181 (and .def_179 .def_180)))
(let ((.def_183 (and .def_181 .def_182)))
(let ((.def_185 (and .def_183 .def_184)))
(let ((.def_232 (or .def_128 .def_185)))
(let ((.def_233 (or b.EVENT.1__AT0 .def_232)))
(let ((.def_192 (= b.x__AT1 b.x__AT0)))
(let ((.def_189 (= b.y__AT0 b.y__AT1)))
(let ((.def_226 (and .def_189 .def_192)))
(let ((.def_109 (= b.speed_x__AT0 b.speed_x__AT1)))
(let ((.def_227 (and .def_109 .def_226)))
(let ((.def_178 (= b.speed_y__AT0 b.speed_y__AT1)))
(let ((.def_228 (and .def_178 .def_227)))
(let ((.def_223 (= b.delta__AT0 0.0 )))
(let ((.def_224 (and .def_127 .def_223)))
(let ((.def_225 (not .def_224)))
(let ((.def_229 (or .def_225 .def_228)))
(let ((.def_230 (or b.EVENT.1__AT0 .def_229)))
(let ((.def_203 (= b.time__AT0 b.time__AT1)))
(let ((.def_215 (and .def_192 .def_203)))
(let ((.def_216 (and .def_189 .def_215)))
(let ((.def_217 (and .def_109 .def_216)))
(let ((.def_218 (and .def_178 .def_217)))
(let ((.def_219 (and .def_185 .def_218)))
(let ((.def_220 (or .def_49 .def_219)))
(let ((.def_206 (* (- 1.0) b.time__AT1)))
(let ((.def_209 (+ b.delta__AT0 .def_206)))
(let ((.def_210 (+ b.time__AT0 .def_209)))
(let ((.def_211 (= .def_210 0.0 )))
(let ((.def_212 (or .def_128 .def_211)))
(let ((.def_213 (or b.EVENT.1__AT0 .def_212)))
(let ((.def_204 (or .def_127 .def_203)))
(let ((.def_205 (or b.EVENT.1__AT0 .def_204)))
(let ((.def_214 (and .def_205 .def_213)))
(let ((.def_221 (and .def_214 .def_220)))
(let ((.def_199 (= .def_128 b.event_is_timed__AT1)))
(let ((.def_197 (= b.event_is_timed__AT0 .def_127)))
(let ((.def_200 (and .def_197 .def_199)))
(let ((.def_186 (and .def_178 .def_185)))
(let ((.def_84 (<= 0.0 b.speed_y__AT0)))
(let ((.def_131 (not .def_84)))
(let ((.def_130 (= b.y__AT0 0.0 )))
(let ((.def_132 (and .def_130 .def_131)))
(let ((.def_187 (or .def_132 .def_186)))
(let ((.def_153 (or b.counter.0__AT0 .def_152)))
(let ((.def_151 (or .def_32 b.counter.0__AT1)))
(let ((.def_154 (and .def_151 .def_153)))
(let ((.def_155 (and .def_140 .def_154)))
(let ((.def_156 (or b.counter.1__AT0 .def_155)))
(let ((.def_150 (or .def_30 b.counter.1__AT1)))
(let ((.def_157 (and .def_150 .def_156)))
(let ((.def_170 (and .def_147 .def_157)))
(let ((.def_171 (or b.counter.2__AT0 .def_170)))
(let ((.def_165 (and .def_32 .def_140)))
(let ((.def_166 (or b.counter.1__AT0 .def_165)))
(let ((.def_167 (and .def_150 .def_166)))
(let ((.def_168 (and b.counter.2__AT1 .def_167)))
(let ((.def_169 (or .def_35 .def_168)))
(let ((.def_172 (and .def_169 .def_171)))
(let ((.def_173 (and b.counter.3__AT1 .def_172)))
(let ((.def_174 (or b.counter.3__AT0 .def_173)))
(let ((.def_158 (and b.counter.2__AT1 .def_157)))
(let ((.def_159 (or b.counter.2__AT0 .def_158)))
(let ((.def_144 (or b.counter.1__AT0 b.counter.1__AT1)))
(let ((.def_142 (and .def_140 b.counter.0__AT1)))
(let ((.def_143 (or .def_30 .def_142)))
(let ((.def_145 (and .def_143 .def_144)))
(let ((.def_148 (and .def_145 .def_147)))
(let ((.def_149 (or .def_35 .def_148)))
(let ((.def_160 (and .def_149 .def_159)))
(let ((.def_163 (and .def_160 .def_162)))
(let ((.def_164 (or .def_38 .def_163)))
(let ((.def_175 (and .def_164 .def_174)))
(let ((.def_134 (* (- 1.0) b.speed_y__AT0)))
(let ((.def_137 (* .def_134 .def_136)))
(let ((.def_138 (= b.speed_y__AT1 .def_137)))
(let ((.def_176 (and .def_138 .def_175)))
(let ((.def_133 (not .def_132)))
(let ((.def_177 (or .def_133 .def_176)))
(let ((.def_188 (and .def_177 .def_187)))
(let ((.def_190 (and .def_188 .def_189)))
(let ((.def_191 (and .def_109 .def_190)))
(let ((.def_193 (and .def_191 .def_192)))
(let ((.def_194 (or .def_127 .def_193)))
(let ((.def_195 (or b.EVENT.1__AT0 .def_194)))
(let ((.def_119 (* (- 1.0) b.y__AT1)))
(let ((.def_79 (* b.speed_y__AT0 b.delta__AT0)))
(let ((.def_122 (+ .def_79 .def_119)))
(let ((.def_74 (* b.delta__AT0 b.delta__AT0)))
(let ((.def_78 (* .def_74 .def_77)))
(let ((.def_123 (+ .def_78 .def_122)))
(let ((.def_124 (+ b.y__AT0 .def_123)))
(let ((.def_125 (= .def_124 0.0 )))
(let ((.def_111 (* b.delta__AT0 .def_76)))
(let ((.def_114 (+ .def_111 .def_113)))
(let ((.def_115 (+ b.speed_y__AT0 .def_114)))
(let ((.def_116 (= .def_115 0.0 )))
(let ((.def_101 (* (- 1.0) b.x__AT1)))
(let ((.def_105 (+ .def_101 b.x__AT0)))
(let ((.def_99 (* b.delta__AT0 b.speed_x__AT0)))
(let ((.def_106 (+ .def_99 .def_105)))
(let ((.def_107 (= .def_106 0.0 )))
(let ((.def_110 (and .def_107 .def_109)))
(let ((.def_117 (and .def_110 .def_116)))
(let ((.def_126 (and .def_117 .def_125)))
(let ((.def_129 (or .def_126 .def_128)))
(let ((.def_196 (and .def_129 .def_195)))
(let ((.def_201 (and .def_196 .def_200)))
(let ((.def_222 (and .def_201 .def_221)))
(let ((.def_231 (and .def_222 .def_230)))
(let ((.def_234 (and .def_231 .def_233)))
(let ((.def_238 (and .def_234 .def_237)))
(let ((.def_239 (and .def_49 .def_238)))
(let ((.def_256 (and .def_239 .def_255)))
(let ((.def_260 (and .def_256 .def_259)))
(let ((.def_86 (* b.delta__AT0 .def_85)))
(let ((.def_87 (+ b.speed_y__AT0 .def_86)))
(let ((.def_91 (<= .def_87 0.0 )))
(let ((.def_90 (<= b.speed_y__AT0 0.0 )))
(let ((.def_92 (and .def_90 .def_91)))
(let ((.def_88 (<= 0.0 .def_87)))
(let ((.def_89 (and .def_84 .def_88)))
(let ((.def_93 (or .def_89 .def_92)))
(let ((.def_80 (+ .def_78 .def_79)))
(let ((.def_81 (+ b.y__AT0 .def_80)))
(let ((.def_82 (<= 0.0 .def_81)))
(let ((.def_68 (<= 0.0 b.y__AT0)))
(let ((.def_83 (and .def_68 .def_82)))
(let ((.def_94 (and .def_83 .def_93)))
(let ((.def_95 (and .def_58 .def_94)))
(let ((.def_96 (and .def_66 .def_95)))
(let ((.def_69 (and .def_67 .def_68)))
(let ((.def_52 (or .def_49 .def_51)))
(let ((.def_42 (or .def_30 .def_32)))
(let ((.def_46 (or b.counter.3__AT0 .def_42)))
(let ((.def_43 (or b.counter.2__AT0 .def_42)))
(let ((.def_41 (or .def_32 .def_35)))
(let ((.def_44 (and .def_41 .def_43)))
(let ((.def_45 (or .def_38 .def_44)))
(let ((.def_47 (and .def_45 .def_46)))
(let ((.def_53 (and .def_47 .def_52)))
(let ((.def_70 (and .def_53 .def_69)))
(let ((.def_39 (and .def_36 .def_38)))
(let ((.def_27 (= b.speed_y__AT0 0.0 )))
(let ((.def_24 (= b.y__AT0 10.0 )))
(let ((.def_19 (= b.time__AT0 0.0 )))
(let ((.def_21 (and .def_19 b.event_is_timed__AT0)))
(let ((.def_25 (and .def_21 .def_24)))
(let ((.def_28 (and .def_25 .def_27)))
(let ((.def_40 (and .def_28 .def_39)))
(let ((.def_71 (and .def_40 .def_70)))
(let ((.def_7 (and .def_4 .def_6)))
(let ((.def_14 (or .def_7 b.counter.3__AT2)))
(let ((.def_10 (and .def_7 .def_9)))
(let ((.def_13 (or .def_10 .def_12)))
(let ((.def_15 (and .def_13 .def_14)))
(let ((.def_16 (not .def_15)))
(let ((.def_72 (and .def_16 .def_71)))
(let ((.def_97 (and .def_72 .def_96)))
(let ((.def_261 (and .def_97 .def_260)))
(let ((.def_282 (and .def_261 .def_281)))
(let ((.def_434 (and .def_282 .def_433)))
(let ((.def_455 (and .def_434 .def_454)))
.def_455))))))))))))))))))))))))))))))))))))))))))))))))))))))))))))))))))))))))))))))))))))))))))))))))))))))))))))))))))))))))))))))))))))))))))))))))))))))))))))))))))))))))))))))))))))))))))))))))))))))))))))))))))))))))))))))))))))))))))))))))))))))))))))))))))))))))))))))))))))))))))))))))))))))))))))))))))))))))))))))))))))))))))))))))))))))))))))))))))))))))))))))))))))))))))))))))))))))))))
(check-sat)
(exit)
